101 666
1 50 76 68 80 77 3 79 33 81 78 34 29 24 54 12 26 28 27 101 53 40 58 13 94 96 99 59 92 98 37 93 91 100 85 61 16 86 38 44 14 42 43 15 57 41 22 74 75 56 23 67 39 55 25 4 72 21 73 2 87 97 95 6 89 52 18 60 83 5 84 17 45 46 8 82 7 48 47 36 49 64 19 11 63 90 32 20 66 65 71 35 9 51 30 70 10 62 88 31 69 
